language ESSENCE' 1.0

letting jobs = 102
letting horizon = 803
letting resourcesRenew = 2
letting resourcesNonrenew = 2
letting resourceLimits = [74, 82, 461, 480]
letting successors = [[2, 3, 4, 5, 6, 7, 8, 9, 10, 11, 12, 13, 14, 15, 16, 18, 19, 20, 22, 24, 25, 29, 32, 34, 35, 37, 39, 41, 58], [101, 98, 94, 66, 63, 62, 61, 57, 54, 51, 50, 49, 45, 42, 36, 27], [101, 94, 68, 67, 66, 63, 52, 50, 46, 44, 33, 27, 17], [99, 95, 94, 68, 65, 59, 56, 54, 52, 50, 48, 46, 45, 44, 33, 30], [99, 96, 89, 88, 84, 67, 66, 64, 60, 52, 51, 45, 31, 28], [100, 98, 97, 96, 95, 94, 88, 84, 80, 78, 67, 66, 65, 56, 55, 48, 47, 21], [101, 100, 98, 97, 94, 92, 91, 90, 87, 82, 79, 67, 66, 62, 60, 59, 47, 46, 44, 27], [101, 99, 97, 96, 95, 94, 91, 90, 89, 63, 62, 60, 59, 56, 55, 54, 48, 45, 38], [101, 100, 92, 90, 65, 61, 59, 55, 54, 53, 48, 44, 43, 27], [101, 96, 94, 91, 89, 68, 65, 62, 61, 57, 55, 54, 52, 45, 44, 26], [101, 98, 97, 96, 95, 90, 67, 60, 59, 57, 48, 44, 38, 23], [101, 100, 98, 96, 95, 94, 93, 90, 89, 78, 67, 64, 62, 60, 57, 56, 55, 49, 48, 38], [98, 94, 92, 91, 90, 77, 66, 64, 60, 59, 49, 48, 38, 27], [99, 97, 95, 94, 93, 64, 63, 60, 59, 52, 44, 31], [99, 97, 96, 95, 93, 92, 91, 89, 88, 85, 84, 81, 78, 75, 67, 65, 61, 55, 54, 48], [99, 98, 97, 94, 92, 91, 90, 88, 81, 78, 64, 62, 61, 57, 55, 49, 48], [98, 97, 96, 95, 92, 90, 89, 86, 84, 82, 81, 78, 75, 72, 64, 60, 59, 55, 49], [98, 96, 91, 89, 88, 83, 80, 77, 76, 64, 59, 52, 48, 45], [100, 96, 95, 94, 92, 91, 90, 88, 81, 79, 78, 74, 73, 65, 59, 56, 47], [99, 98, 94, 91, 89, 88, 86, 82, 78, 74, 72, 64, 57, 55, 49], [101, 99, 93, 92, 91, 90, 87, 83, 82, 79, 77, 76, 74, 64, 63, 59, 52], [100, 97, 96, 94, 89, 84, 81, 78, 76, 72, 71, 64, 60, 59, 56], [94, 91, 89, 86, 85, 84, 83, 77, 76, 75, 71, 64, 45], [95, 94, 91, 89, 88, 85, 79, 74, 63, 57, 55, 52], [100, 95, 84, 82, 79, 74, 59, 52, 46], [100, 98, 97, 93, 92, 90, 88, 86, 83, 81, 79, 78, 76, 73, 71, 70, 69, 60], [99, 96, 95, 93, 89, 86, 84, 81, 80, 78, 75, 74, 73, 72, 71, 70, 56], [98, 94, 81, 80, 49, 40], [99, 95, 92, 90, 87, 82, 81, 78, 77, 76, 66, 64, 63, 59], [98, 92, 90, 86, 85, 82, 80, 75, 72, 69, 64, 61, 55], [101, 100, 90, 80, 76, 73, 70, 65, 61, 48], [97, 93, 91, 87, 84, 83, 82, 80, 79, 78, 76, 71, 70, 69, 66, 64], [90, 89, 86, 85, 78, 76, 72, 64, 62, 60, 55], [97, 89, 88, 87, 85, 84, 81, 79, 77, 76, 75, 73, 71, 70, 60], [100, 96, 95, 94, 92, 91, 90, 88, 84, 78, 77, 71, 70, 69, 66], [97, 95, 90, 84, 81, 80, 75, 73, 72, 59, 55], [94, 89, 85, 82, 79, 77, 76, 75, 74, 72, 57], [88, 87, 86, 84, 81, 79, 75, 74, 73, 70, 69, 65], [85, 81, 79, 77, 76, 75, 74, 71, 64, 59], [100, 97, 92, 91, 82, 79, 78, 74, 72, 70, 69], [100, 93, 88, 83, 82, 79, 78, 77, 75, 72, 69], [99, 88, 83, 70, 48], [91, 89, 88, 85, 83, 76, 73, 71, 70, 69], [88, 84, 78, 77, 75, 72, 71, 70, 69], [93, 92, 82, 78, 74, 73, 70, 69], [93, 86, 80, 78, 76, 73, 70, 69], [89, 85, 77, 75, 71, 70, 69], [87, 86, 79, 72, 71, 69], [87, 85, 79, 76, 70, 69], [96, 91, 83, 73, 70, 69], [87, 80, 77, 76, 73, 72], [81, 75, 72, 71, 69], [98, 81, 80, 70, 69], [76, 74, 64], [77, 71, 70], [85, 83, 69], [84, 80, 71], [90, 78, 72], [70, 69], [80, 74], [83, 74], [77, 75], [75, 72], [73], [82], [72], [69], [73], [102], [102], [102], [102], [102], [102], [102], [102], [102], [102], [102], [102], [102], [102], [102], [102], [102], [102], [102], [102], [102], [102], [102], [102], [102], [102], [102], [102], [102], [102], [102], [102], [102], []]
letting durations = [[0], [1, 3, 10], [3, 4, 6], [2, 3, 7], [1, 3, 4], [1, 7, 8], [5, 6, 7], [4, 7, 8], [2, 3, 7], [2, 3, 9], [2, 9, 10], [4, 6, 7], [5, 8, 10], [6, 8, 9], [4, 8, 9], [8, 9, 10], [1, 2, 4], [4, 8, 9], [7, 7, 8], [4, 7, 9], [1, 5, 6], [4, 5, 8], [5, 6, 10], [3, 4, 9], [1, 4, 10], [3, 4, 9], [3, 4, 5], [7, 8, 10], [8, 9, 10], [2, 3, 7], [4, 8, 10], [5, 7, 10], [3, 3, 4], [1, 5, 8], [3, 7, 9], [2, 4, 10], [2, 3, 4], [2, 5, 9], [2, 3, 7], [1, 6, 10], [6, 7, 8], [2, 3, 5], [4, 6, 7], [4, 5, 7], [4, 5, 6], [3, 4, 9], [2, 3, 6], [5, 6, 9], [2, 3, 4], [3, 9, 10], [1, 2, 7], [3, 7, 8], [5, 6, 7], [4, 6, 8], [2, 3, 5], [1, 6, 9], [7, 8, 9], [1, 3, 7], [3, 8, 9], [2, 3, 9], [3, 6, 8], [1, 2, 7], [6, 7, 9], [3, 6, 7], [3, 7, 8], [1, 4, 10], [7, 8, 9], [1, 8, 9], [1, 6, 9], [7, 8, 9], [2, 5, 9], [1, 3, 7], [2, 7, 8], [1, 5, 8], [1, 5, 7], [7, 8, 9], [7, 8, 10], [2, 3, 10], [2, 3, 4], [3, 4, 9], [2, 8, 9], [3, 4, 10], [2, 7, 9], [2, 5, 10], [3, 4, 8], [2, 4, 5], [3, 4, 10], [2, 3, 8], [3, 4, 5], [6, 7, 8], [7, 8, 9], [4, 8, 9], [3, 7, 10], [1, 2, 8], [4, 7, 8], [2, 3, 4], [2, 5, 9], [7, 8, 9], [1, 6, 7], [1, 3, 8], [6, 7, 9], [0]]
letting resourceUsage = [[[0, 0, 0, 0]], [[3, 5, 8, 8], [3, 5, 7, 5], [2, 5, 7, 4]], [[5, 5, 7, 8], [5, 5, 4, 7], [5, 5, 3, 4]], [[4, 4, 5, 7], [3, 3, 5, 5], [3, 3, 5, 4]], [[4, 3, 8, 1], [2, 2, 7, 1], [1, 2, 3, 1]], [[5, 2, 7, 3], [5, 2, 7, 2], [5, 2, 7, 1]], [[4, 4, 8, 6], [2, 4, 7, 5], [2, 4, 4, 2]], [[3, 4, 8, 9], [2, 4, 5, 7], [1, 4, 4, 6]], [[3, 5, 6, 7], [2, 4, 6, 4], [2, 2, 5, 4]], [[4, 5, 9, 7], [3, 4, 6, 5], [3, 3, 6, 4]], [[1, 4, 10, 10], [1, 4, 8, 7], [1, 3, 7, 6]], [[4, 5, 7, 7], [3, 4, 5, 5], [2, 4, 4, 4]], [[4, 4, 8, 9], [2, 3, 7, 9], [2, 2, 6, 9]], [[1, 3, 5, 2], [1, 2, 3, 1], [1, 2, 2, 1]], [[3, 5, 5, 9], [3, 2, 5, 5], [3, 2, 3, 3]], [[3, 5, 9, 6], [3, 3, 8, 6], [3, 2, 7, 5]], [[3, 5, 6, 8], [3, 4, 4, 5], [3, 3, 3, 5]], [[4, 2, 5, 2], [4, 2, 2, 3], [4, 2, 2, 2]], [[1, 3, 8, 3], [1, 2, 5, 4], [1, 2, 5, 3]], [[4, 4, 6, 6], [3, 3, 3, 6], [3, 3, 3, 5]], [[4, 4, 7, 5], [4, 4, 6, 3], [4, 4, 4, 3]], [[3, 2, 10, 6], [1, 2, 8, 4], [1, 2, 6, 4]], [[4, 1, 7, 6], [3, 1, 6, 5], [3, 1, 2, 4]], [[4, 5, 3, 5], [2, 3, 2, 4], [1, 2, 2, 4]], [[2, 5, 4, 1], [1, 5, 4, 2], [1, 5, 4, 1]], [[5, 4, 6, 3], [4, 4, 5, 2], [4, 2, 4, 2]], [[3, 3, 10, 9], [2, 2, 7, 4], [1, 2, 6, 4]], [[5, 4, 6, 7], [4, 4, 5, 5], [3, 3, 5, 2]], [[4, 4, 9, 7], [3, 4, 7, 7], [3, 3, 7, 6]], [[5, 2, 8, 7], [4, 2, 5, 5], [2, 1, 3, 5]], [[2, 5, 6, 6], [1, 4, 3, 5], [1, 4, 2, 5]], [[4, 2, 10, 7], [3, 2, 6, 6], [1, 2, 3, 4]], [[4, 2, 1, 7], [3, 1, 1, 8], [3, 1, 1, 7]], [[3, 3, 8, 6], [3, 2, 5, 4], [3, 1, 4, 4]], [[3, 2, 8, 8], [2, 2, 5, 8], [2, 2, 1, 8]], [[3, 4, 7, 2], [2, 3, 7, 1], [2, 3, 5, 1]], [[5, 4, 8, 9], [4, 2, 5, 9], [4, 2, 4, 9]], [[3, 4, 9, 7], [2, 3, 6, 7], [2, 3, 3, 7]], [[2, 4, 6, 9], [2, 2, 5, 7], [2, 2, 2, 5]], [[2, 3, 8, 4], [2, 2, 7, 4], [1, 2, 1, 4]], [[5, 3, 6, 9], [4, 3, 5, 7], [4, 3, 4, 7]], [[2, 4, 9, 5], [2, 4, 5, 4], [2, 4, 4, 2]], [[5, 3, 7, 7], [4, 2, 6, 7], [2, 2, 6, 3]], [[2, 5, 6, 3], [2, 4, 3, 2], [1, 2, 2, 2]], [[2, 3, 7, 9], [2, 3, 6, 5], [2, 3, 6, 4]], [[3, 2, 8, 9], [3, 1, 4, 8], [1, 1, 2, 6]], [[5, 1, 1, 2], [4, 1, 1, 2], [2, 1, 1, 2]], [[1, 4, 8, 7], [1, 3, 7, 4], [1, 2, 6, 2]], [[4, 1, 8, 6], [2, 1, 3, 5], [2, 1, 3, 3]], [[3, 4, 10, 7], [3, 4, 9, 6], [3, 4, 9, 5]], [[4, 3, 6, 6], [4, 3, 3, 5], [2, 3, 1, 4]], [[4, 5, 3, 9], [3, 4, 2, 8], [2, 3, 2, 8]], [[5, 4, 9, 9], [4, 3, 9, 7], [4, 3, 9, 6]], [[3, 3, 7, 8], [2, 2, 4, 7], [2, 2, 3, 6]], [[5, 3, 5, 7], [3, 3, 5, 5], [3, 1, 4, 1]], [[4, 5, 8, 7], [4, 5, 8, 6], [4, 5, 7, 4]], [[2, 5, 6, 3], [2, 3, 4, 2], [2, 1, 2, 1]], [[2, 2, 7, 5], [1, 2, 5, 3], [1, 2, 4, 2]], [[4, 4, 8, 8], [3, 3, 6, 4], [3, 2, 4, 2]], [[4, 4, 8, 6], [4, 4, 5, 5], [3, 4, 3, 5]], [[3, 2, 10, 4], [3, 2, 5, 3], [3, 2, 5, 2]], [[5, 4, 9, 3], [3, 4, 9, 1], [2, 4, 9, 1]], [[3, 3, 5, 10], [3, 2, 4, 8], [3, 2, 3, 8]], [[3, 3, 5, 7], [3, 2, 4, 7], [2, 1, 2, 4]], [[3, 3, 9, 7], [1, 3, 6, 5], [1, 2, 3, 3]], [[3, 3, 7, 2], [3, 2, 7, 2], [3, 1, 5, 1]], [[2, 3, 9, 3], [2, 3, 7, 3], [2, 3, 6, 3]], [[2, 2, 4, 6], [2, 2, 4, 5], [2, 2, 4, 3]], [[4, 4, 3, 9], [3, 3, 3, 7], [2, 2, 3, 3]], [[2, 1, 7, 7], [1, 1, 7, 6], [1, 1, 7, 4]], [[5, 2, 5, 10], [3, 2, 5, 8], [3, 2, 5, 7]], [[1, 5, 3, 8], [1, 4, 3, 5], [1, 3, 2, 2]], [[3, 5, 3, 8], [2, 4, 3, 7], [1, 4, 2, 5]], [[4, 3, 8, 10], [4, 3, 7, 9], [4, 3, 7, 8]], [[4, 4, 3, 8], [2, 3, 3, 7], [2, 3, 2, 5]], [[4, 4, 9, 2], [3, 4, 7, 1], [3, 4, 6, 1]], [[3, 3, 1, 8], [2, 2, 1, 7], [1, 1, 1, 7]], [[3, 2, 6, 9], [3, 1, 3, 8], [2, 1, 3, 6]], [[4, 4, 3, 8], [4, 3, 3, 6], [3, 2, 2, 5]], [[2, 3, 1, 3], [2, 2, 1, 2], [2, 2, 1, 1]], [[2, 1, 8, 6], [2, 1, 7, 4], [2, 1, 7, 3]], [[2, 5, 8, 8], [2, 4, 8, 4], [2, 3, 4, 4]], [[4, 3, 6, 5], [4, 1, 5, 5], [4, 1, 5, 4]], [[4, 4, 5, 5], [4, 4, 5, 4], [4, 4, 5, 3]], [[5, 3, 3, 10], [3, 2, 2, 9], [3, 2, 2, 8]], [[4, 5, 6, 4], [3, 4, 5, 4], [3, 4, 4, 2]], [[2, 2, 8, 6], [1, 1, 4, 5], [1, 1, 3, 2]], [[3, 5, 8, 9], [2, 4, 6, 8], [2, 2, 4, 7]], [[5, 3, 8, 7], [5, 2, 6, 7], [5, 2, 6, 6]], [[4, 3, 3, 9], [4, 3, 3, 6], [3, 3, 2, 5]], [[1, 5, 8, 8], [1, 4, 4, 8], [1, 4, 2, 8]], [[3, 3, 8, 9], [2, 3, 7, 7], [2, 2, 7, 5]], [[5, 4, 10, 4], [3, 3, 10, 4], [3, 3, 10, 2]], [[3, 3, 8, 5], [3, 3, 6, 3], [3, 3, 4, 3]], [[3, 4, 6, 4], [2, 2, 5, 4], [2, 1, 4, 3]], [[5, 1, 6, 8], [3, 1, 4, 8], [3, 1, 1, 7]], [[4, 4, 5, 8], [3, 3, 2, 6], [3, 2, 2, 5]], [[5, 4, 3, 6], [3, 3, 2, 6], [3, 3, 2, 5]], [[3, 4, 2, 9], [2, 3, 2, 6], [2, 2, 2, 6]], [[5, 2, 8, 9], [4, 1, 7, 9], [4, 1, 5, 9]], [[2, 4, 3, 6], [1, 2, 2, 5], [1, 2, 2, 4]], [[0, 0, 0, 0]]]
